97 97
90 17
7 5
44 16
87 40
70 38
86 9
37 11
29 29
45 2
84 6
51 44
42 43
56 23
5 42
14 18
35 20
71 13
94 1
28 29
59 22
92 28
54 7
12 30
39 4
43 19
91 33
48 20
93 40
58 2
67 5
26 26
2 30
52 46
8 44
81 25
49 48
72 24
24 47
30 11
88 41
9 10
13 24
21 31
11 18
41 27
78 32
31 22
34 34
60 13
83 6
20 7
15 19
47 8
64 23
63 28
79 15
50 15
82 12
1 3
73 4
46 31
69 39
27 41
36 10
80 26
32 46
66 1
75 39
19 21
40 33
97 35
4 16
6 43
38 9
23 14
57 27
77 32
25 35
33 37
96 17
10 12
53 36
65 34
3 49
89 42
22 45
62 38
17 48
55 14
74 36
18 21
16 45
68 37
61 8
76 47
85 25
95 3
